96
200
140	3
139	5
138	6
137	4
136	3
135	4
134	1
133	1
132	1
131	2
130	3
129	2
128	3
127	2
126	3
125	3
124	7
123	3
122	1
121	4
120	3
119	4
118	4
117	3
116	1
115	5
114	5
113	5
112	2
111	5
110	5
109	1
108	2
107	5
106	2
105	2
104	3
103	3
101	2
100	3
99	2
98	3
97	7
96	2
95	2
94	3
92	1
91	3
90	5
89	3
88	4
87	4
86	3
85	4
84	3
83	7
82	3
81	1
80	2
78	7
77	4
75	9
74	1
73	2
72	1
71	1
70	5
69	2
68	3
66	5
65	2
64	4
63	3
62	6
61	2
60	3
59	2
58	1
57	1
56	2
55	4
54	2
53	1
52	1
51	1
50	3
49	4
48	1
47	7
46	6
45	1
44	3
43	1
42	4
41	5
40	2
